8538
29, 20, 23, 30, 7, 2, 42, 21, 17, 3, 19, 41, 8, 9, 10, 45, 31, 18, 22, 1, 32, 49, 35, 36, 34, 39, 40, 38, 5, 6, 4, 25, 28, 12, 27, 26, 47, 13, 14, 52, 11, 51, 33, 43, 15, 24, 48, 37, 44, 46, 16, 50
